7473
9656
6598
8350
7939
2336
1151
7720
4493
3308
10100
9210
9893
2707
5053
7035
2568
6168
6565
9412
8995
4498
2555
5989
6096
3613
9227
7067
9076
981
1012
2443
4066
9808
2917
5221
6038
5766
7033
6577
7542
3528
7441
2899
4304
7473
8428
2390
1410
1659
